*HEADING
Official-like contact demo (Abaqus style)
*PREPRINT, ECHO=NO, MODEL=NO, HISTORY=NO, CONTACT=NO

*NODE
1, 0,0,0
2, 1,0,0
3, 1,1,0
4, 0,1,0
5, 0,0,1
6, 1,0,1
7, 1,1,1
8, 0,1,1

*ELEMENT, TYPE=C3D8, ELSET=EALL
1, 1,2,3,4,5,6,7,8

*SURFACE, NAME=S1, TYPE=ELEMENT
EALL, S3
*SURFACE, NAME=S2, TYPE=ELEMENT
EALL, S4

*SURFACE INTERACTION, NAME=INT1
*FRICTION
0.2
*SURFACE BEHAVIOR, PRESSURE-OVERCLOSURE=HARD

*STEP, NAME=CONTACT_STEP
*STATIC
0.1, 1.0, 1e-05, 0.1
*GENERAL CONTACT
*CONTACT CONTROLS, STABILIZE=0.0
*BOUNDARY
1,1,3,0.0
*CLOAD
7,3,-10.0
*OUTPUT, FIELD
*NODE OUTPUT
U
*END STEP
